c Reduced graph for GEOM120a generated by Cyril Grelier
p edge 120 1434
e 1 2
e 1 3
e 1 5
e 1 6
e 1 7
e 1 12
e 1 14
e 1 19
e 1 21
e 1 22
e 1 27
e 1 29
e 1 35
e 1 39
e 1 41
e 1 45
e 1 57
e 1 58
e 1 59
e 1 60
e 1 61
e 1 73
e 1 76
e 1 78
e 1 79
e 1 87
e 1 88
e 1 89
e 1 91
e 1 99
e 1 108
e 1 113
e 1 116
e 2 5
e 2 6
e 2 11
e 2 12
e 2 14
e 2 19
e 2 21
e 2 22
e 2 27
e 2 29
e 2 35
e 2 39
e 2 41
e 2 43
e 2 45
e 2 58
e 2 59
e 2 60
e 2 76
e 2 78
e 2 87
e 2 88
e 2 89
e 2 91
e 2 99
e 2 108
e 2 113
e 2 116
e 2 120
e 3 4
e 3 7
e 3 8
e 3 9
e 3 10
e 3 12
e 3 14
e 3 17
e 3 22
e 3 27
e 3 36
e 3 52
e 3 53
e 3 54
e 3 55
e 3 57
e 3 75
e 3 77
e 3 79
e 3 86
e 3 87
e 3 88
e 3 91
e 3 92
e 3 95
e 3 111
e 3 112
e 3 114
e 4 7
e 4 9
e 4 10
e 4 18
e 4 20
e 4 28
e 4 31
e 4 33
e 4 36
e 4 38
e 4 47
e 4 50
e 4 52
e 4 53
e 4 54
e 4 62
e 4 74
e 4 75
e 4 79
e 4 81
e 4 86
e 4 94
e 4 104
e 4 112
e 4 115
e 4 118
e 4 119
e 5 6
e 5 11
e 5 12
e 5 14
e 5 22
e 5 23
e 5 29
e 5 32
e 5 35
e 5 39
e 5 41
e 5 43
e 5 58
e 5 59
e 5 76
e 5 87
e 5 88
e 5 89
e 5 91
e 5 99
e 5 111
e 5 113
e 5 116
e 5 120
e 6 11
e 6 14
e 6 21
e 6 22
e 6 29
e 6 32
e 6 35
e 6 39
e 6 41
e 6 43
e 6 45
e 6 58
e 6 59
e 6 60
e 6 76
e 6 88
e 6 89
e 6 91
e 6 99
e 6 108
e 6 113
e 6 116
e 6 120
e 7 9
e 7 10
e 7 19
e 7 20
e 7 22
e 7 27
e 7 54
e 7 55
e 7 57
e 7 61
e 7 73
e 7 75
e 7 76
e 7 78
e 7 79
e 7 81
e 7 89
e 7 104
e 7 112
e 7 113
e 8 12
e 8 15
e 8 17
e 8 24
e 8 34
e 8 36
e 8 52
e 8 53
e 8 55
e 8 56
e 8 66
e 8 67
e 8 77
e 8 85
e 8 86
e 8 90
e 8 92
e 8 93
e 8 95
e 8 100
e 8 111
e 8 114
e 9 10
e 9 19
e 9 20
e 9 22
e 9 27
e 9 50
e 9 54
e 9 57
e 9 61
e 9 62
e 9 73
e 9 74
e 9 75
e 9 78
e 9 79
e 9 81
e 9 104
e 9 112
e 10 18
e 10 19
e 10 20
e 10 27
e 10 50
e 10 54
e 10 57
e 10 61
e 10 62
e 10 73
e 10 74
e 10 75
e 10 79
e 10 81
e 10 104
e 10 112
e 11 29
e 11 32
e 11 35
e 11 39
e 11 41
e 11 43
e 11 58
e 11 59
e 11 88
e 11 91
e 11 116
e 11 120
e 12 13
e 12 14
e 12 17
e 12 22
e 12 23
e 12 32
e 12 34
e 12 35
e 12 37
e 12 41
e 12 43
e 12 51
e 12 55
e 12 59
e 12 66
e 12 67
e 12 77
e 12 85
e 12 87
e 12 88
e 12 91
e 12 92
e 12 95
e 12 99
e 12 109
e 12 110
e 12 111
e 12 114
e 13 14
e 13 16
e 13 23
e 13 25
e 13 26
e 13 30
e 13 34
e 13 37
e 13 40
e 13 42
e 13 46
e 13 51
e 13 63
e 13 64
e 13 66
e 13 67
e 13 68
e 13 69
e 13 83
e 13 85
e 13 97
e 13 98
e 13 99
e 13 101
e 13 103
e 13 105
e 13 106
e 13 109
e 13 110
e 13 111
e 13 114
e 14 22
e 14 23
e 14 32
e 14 34
e 14 35
e 14 41
e 14 43
e 14 51
e 14 55
e 14 59
e 14 66
e 14 67
e 14 68
e 14 85
e 14 87
e 14 88
e 14 91
e 14 92
e 14 99
e 14 109
e 14 110
e 14 111
e 14 114
e 14 116
e 14 120
e 15 17
e 15 24
e 15 34
e 15 36
e 15 44
e 15 48
e 15 52
e 15 53
e 15 55
e 15 56
e 15 65
e 15 67
e 15 71
e 15 72
e 15 77
e 15 80
e 15 82
e 15 84
e 15 86
e 15 90
e 15 92
e 15 93
e 15 95
e 15 96
e 15 100
e 15 102
e 15 107
e 15 114
e 15 117
e 16 23
e 16 25
e 16 26
e 16 30
e 16 34
e 16 37
e 16 40
e 16 42
e 16 46
e 16 51
e 16 63
e 16 64
e 16 66
e 16 67
e 16 68
e 16 69
e 16 83
e 16 85
e 16 97
e 16 98
e 16 99
e 16 101
e 16 103
e 16 105
e 16 106
e 16 109
e 16 110
e 16 111
e 17 24
e 17 34
e 17 36
e 17 37
e 17 52
e 17 53
e 17 55
e 17 56
e 17 66
e 17 67
e 17 77
e 17 85
e 17 86
e 17 87
e 17 90
e 17 92
e 17 93
e 17 95
e 17 100
e 17 105
e 17 111
e 17 114
e 18 20
e 18 28
e 18 31
e 18 33
e 18 36
e 18 38
e 18 47
e 18 52
e 18 53
e 18 54
e 18 62
e 18 70
e 18 74
e 18 75
e 18 86
e 18 90
e 18 94
e 18 104
e 18 112
e 18 115
e 18 118
e 18 119
e 19 21
e 19 22
e 19 27
e 19 29
e 19 35
e 19 39
e 19 45
e 19 57
e 19 58
e 19 60
e 19 61
e 19 73
e 19 76
e 19 78
e 19 79
e 19 81
e 19 89
e 19 108
e 19 113
e 20 28
e 20 31
e 20 33
e 20 38
e 20 47
e 20 50
e 20 54
e 20 57
e 20 62
e 20 74
e 20 75
e 20 79
e 20 81
e 20 94
e 20 104
e 20 112
e 20 118
e 21 22
e 21 27
e 21 29
e 21 35
e 21 39
e 21 45
e 21 57
e 21 58
e 21 60
e 21 61
e 21 73
e 21 76
e 21 78
e 21 89
e 21 108
e 21 113
e 22 27
e 22 35
e 22 39
e 22 41
e 22 55
e 22 57
e 22 59
e 22 60
e 22 61
e 22 73
e 22 76
e 22 78
e 22 79
e 22 81
e 22 87
e 22 88
e 22 89
e 22 91
e 22 99
e 22 113
e 22 116
e 23 25
e 23 26
e 23 32
e 23 34
e 23 37
e 23 41
e 23 43
e 23 51
e 23 55
e 23 66
e 23 67
e 23 68
e 23 69
e 23 77
e 23 85
e 23 87
e 23 88
e 23 91
e 23 92
e 23 99
e 23 103
e 23 109
e 23 110
e 23 111
e 23 114
e 24 36
e 24 38
e 24 44
e 24 52
e 24 53
e 24 54
e 24 56
e 24 70
e 24 71
e 24 72
e 24 77
e 24 80
e 24 82
e 24 86
e 24 90
e 24 93
e 24 94
e 24 95
e 24 96
e 24 100
e 24 102
e 24 107
e 24 115
e 24 117
e 24 119
e 25 26
e 25 30
e 25 34
e 25 37
e 25 40
e 25 42
e 25 46
e 25 51
e 25 63
e 25 64
e 25 66
e 25 67
e 25 68
e 25 69
e 25 83
e 25 85
e 25 97
e 25 98
e 25 101
e 25 103
e 25 105
e 25 106
e 25 109
e 25 110
e 26 30
e 26 37
e 26 40
e 26 42
e 26 46
e 26 51
e 26 63
e 26 64
e 26 66
e 26 68
e 26 69
e 26 83
e 26 85
e 26 97
e 26 98
e 26 101
e 26 103
e 26 106
e 26 109
e 26 110
e 27 35
e 27 39
e 27 57
e 27 60
e 27 61
e 27 73
e 27 76
e 27 78
e 27 79
e 27 81
e 27 89
e 27 91
e 27 104
e 27 112
e 27 113
e 28 31
e 28 33
e 28 36
e 28 38
e 28 47
e 28 52
e 28 53
e 28 54
e 28 62
e 28 70
e 28 74
e 28 75
e 28 86
e 28 94
e 28 104
e 28 112
e 28 115
e 28 118
e 28 119
e 29 35
e 29 39
e 29 41
e 29 45
e 29 58
e 29 59
e 29 60
e 29 76
e 29 78
e 29 89
e 29 108
e 29 113
e 29 116
e 29 120
e 30 37
e 30 40
e 30 42
e 30 46
e 30 51
e 30 63
e 30 64
e 30 68
e 30 69
e 30 83
e 30 85
e 30 98
e 30 101
e 30 103
e 30 106
e 30 109
e 30 110
e 31 33
e 31 36
e 31 38
e 31 47
e 31 53
e 31 54
e 31 62
e 31 70
e 31 74
e 31 75
e 31 86
e 31 94
e 31 112
e 31 115
e 31 118
e 31 119
e 32 41
e 32 43
e 32 51
e 32 59
e 32 68
e 32 87
e 32 88
e 32 91
e 32 99
e 32 106
e 32 109
e 32 110
e 32 116
e 32 120
e 33 36
e 33 38
e 33 47
e 33 54
e 33 62
e 33 70
e 33 74
e 33 75
e 33 86
e 33 94
e 33 112
e 33 115
e 33 118
e 33 119
e 34 37
e 34 40
e 34 51
e 34 55
e 34 66
e 34 67
e 34 68
e 34 69
e 34 77
e 34 83
e 34 85
e 34 87
e 34 92
e 34 93
e 34 95
e 34 97
e 34 99
e 34 100
e 34 105
e 34 109
e 34 110
e 34 111
e 34 114
e 35 39
e 35 41
e 35 43
e 35 45
e 35 58
e 35 59
e 35 60
e 35 76
e 35 78
e 35 87
e 35 88
e 35 89
e 35 91
e 35 99
e 35 108
e 35 113
e 35 116
e 35 120
e 36 38
e 36 52
e 36 53
e 36 54
e 36 55
e 36 70
e 36 75
e 36 77
e 36 80
e 36 86
e 36 90
e 36 94
e 36 95
e 36 100
e 36 102
e 36 112
e 36 115
e 36 117
e 36 118
e 36 119
e 37 40
e 37 42
e 37 51
e 37 66
e 37 67
e 37 68
e 37 69
e 37 77
e 37 83
e 37 85
e 37 92
e 37 93
e 37 97
e 37 99
e 37 101
e 37 103
e 37 105
e 37 109
e 37 110
e 37 111
e 37 114
e 38 47
e 38 52
e 38 53
e 38 54
e 38 62
e 38 70
e 38 74
e 38 75
e 38 86
e 38 90
e 38 94
e 38 102
e 38 104
e 38 112
e 38 115
e 38 118
e 38 119
e 39 41
e 39 45
e 39 58
e 39 59
e 39 60
e 39 76
e 39 78
e 39 88
e 39 89
e 39 91
e 39 108
e 39 113
e 39 116
e 39 120
e 40 42
e 40 46
e 40 51
e 40 63
e 40 64
e 40 66
e 40 67
e 40 68
e 40 69
e 40 83
e 40 85
e 40 97
e 40 101
e 40 103
e 40 105
e 40 109
e 40 110
e 41 43
e 41 58
e 41 59
e 41 87
e 41 88
e 41 89
e 41 91
e 41 99
e 41 116
e 41 120
e 42 46
e 42 51
e 42 63
e 42 64
e 42 66
e 42 68
e 42 69
e 42 83
e 42 85
e 42 97
e 42 98
e 42 101
e 42 103
e 42 106
e 42 109
e 42 110
e 43 51
e 43 59
e 43 68
e 43 87
e 43 88
e 43 91
e 43 99
e 43 109
e 43 110
e 43 116
e 43 120
e 44 48
e 44 49
e 44 56
e 44 65
e 44 71
e 44 72
e 44 80
e 44 82
e 44 84
e 44 90
e 44 93
e 44 96
e 44 100
e 44 102
e 44 107
e 44 117
e 45 58
e 45 60
e 45 61
e 45 76
e 45 78
e 45 89
e 45 108
e 45 113
e 45 116
e 46 51
e 46 63
e 46 64
e 46 68
e 46 98
e 46 101
e 46 103
e 46 106
e 46 109
e 46 110
e 47 50
e 47 54
e 47 62
e 47 74
e 47 75
e 47 94
e 47 104
e 47 112
e 47 115
e 47 118
e 48 49
e 48 56
e 48 65
e 48 71
e 48 72
e 48 82
e 48 84
e 48 93
e 48 96
e 48 100
e 48 105
e 48 107
e 49 56
e 49 65
e 49 71
e 49 72
e 49 80
e 49 82
e 49 84
e 49 93
e 49 96
e 49 100
e 49 107
e 50 62
e 50 73
e 50 74
e 50 75
e 50 79
e 50 81
e 50 104
e 50 112
e 51 63
e 51 64
e 51 66
e 51 67
e 51 68
e 51 69
e 51 85
e 51 87
e 51 88
e 51 98
e 51 99
e 51 101
e 51 103
e 51 106
e 51 109
e 51 110
e 51 111
e 52 53
e 52 54
e 52 55
e 52 56
e 52 70
e 52 71
e 52 75
e 52 77
e 52 80
e 52 86
e 52 90
e 52 92
e 52 94
e 52 95
e 52 100
e 52 102
e 52 114
e 52 115
e 52 117
e 52 119
e 53 54
e 53 55
e 53 70
e 53 75
e 53 77
e 53 80
e 53 86
e 53 90
e 53 92
e 53 94
e 53 95
e 53 100
e 53 102
e 53 112
e 53 114
e 53 115
e 53 117
e 53 119
e 54 62
e 54 70
e 54 74
e 54 75
e 54 79
e 54 86
e 54 90
e 54 94
e 54 104
e 54 112
e 54 115
e 54 118
e 54 119
e 55 66
e 55 67
e 55 75
e 55 77
e 55 85
e 55 86
e 55 87
e 55 88
e 55 90
e 55 92
e 55 95
e 55 99
e 55 100
e 55 111
e 55 114
e 56 65
e 56 70
e 56 71
e 56 72
e 56 80
e 56 82
e 56 84
e 56 86
e 56 90
e 56 93
e 56 96
e 56 100
e 56 102
e 56 107
e 56 117
e 57 60
e 57 61
e 57 73
e 57 75
e 57 76
e 57 78
e 57 79
e 57 81
e 57 89
e 57 104
e 57 112
e 57 113
e 58 59
e 58 60
e 58 76
e 58 78
e 58 89
e 58 108
e 58 113
e 58 116
e 58 120
e 59 87
e 59 88
e 59 91
e 59 99
e 59 116
e 59 120
e 60 61
e 60 73
e 60 76
e 60 78
e 60 89
e 60 108
e 60 113
e 61 73
e 61 76
e 61 78
e 61 79
e 61 81
e 61 89
e 61 104
e 61 108
e 61 113
e 62 74
e 62 75
e 62 94
e 62 104
e 62 112
e 62 115
e 62 118
e 63 64
e 63 68
e 63 83
e 63 98
e 63 101
e 63 103
e 63 106
e 63 109
e 63 110
e 64 68
e 64 98
e 64 101
e 64 103
e 64 106
e 64 109
e 64 110
e 65 71
e 65 72
e 65 82
e 65 84
e 65 93
e 65 96
e 65 100
e 65 105
e 65 107
e 66 67
e 66 68
e 66 69
e 66 77
e 66 83
e 66 85
e 66 87
e 66 92
e 66 93
e 66 95
e 66 97
e 66 99
e 66 101
e 66 103
e 66 105
e 66 109
e 66 110
e 66 111
e 66 114
e 67 69
e 67 77
e 67 83
e 67 85
e 67 87
e 67 92
e 67 93
e 67 95
e 67 97
e 67 99
e 67 100
e 67 105
e 67 109
e 67 110
e 67 111
e 67 114
e 68 69
e 68 85
e 68 98
e 68 99
e 68 101
e 68 103
e 68 106
e 68 109
e 68 110
e 68 111
e 69 83
e 69 85
e 69 93
e 69 97
e 69 101
e 69 103
e 69 105
e 69 109
e 69 111
e 70 71
e 70 72
e 70 80
e 70 82
e 70 86
e 70 90
e 70 94
e 70 102
e 70 115
e 70 117
e 70 118
e 70 119
e 71 72
e 71 80
e 71 82
e 71 84
e 71 86
e 71 90
e 71 93
e 71 96
e 71 100
e 71 102
e 71 107
e 71 117
e 72 80
e 72 82
e 72 84
e 72 90
e 72 93
e 72 96
e 72 100
e 72 102
e 72 107
e 72 117
e 73 76
e 73 78
e 73 79
e 73 81
e 73 89
e 73 104
e 73 113
e 74 75
e 74 81
e 74 104
e 74 112
e 74 118
e 75 79
e 75 81
e 75 86
e 75 94
e 75 104
e 75 112
e 75 115
e 75 118
e 76 78
e 76 79
e 76 81
e 76 89
e 76 91
e 76 108
e 76 113
e 76 116
e 77 85
e 77 86
e 77 87
e 77 90
e 77 92
e 77 93
e 77 95
e 77 100
e 77 111
e 77 114
e 78 79
e 78 81
e 78 89
e 78 108
e 78 113
e 79 81
e 79 89
e 79 104
e 79 112
e 79 113
e 80 82
e 80 84
e 80 86
e 80 90
e 80 96
e 80 100
e 80 102
e 80 107
e 80 115
e 80 117
e 80 119
e 81 89
e 81 104
e 81 112
e 81 113
e 82 84
e 82 90
e 82 93
e 82 96
e 82 100
e 82 102
e 82 107
e 82 117
e 83 85
e 83 97
e 83 101
e 83 103
e 83 105
e 84 93
e 84 96
e 84 100
e 84 102
e 84 107
e 84 117
e 85 87
e 85 88
e 85 92
e 85 95
e 85 97
e 85 99
e 85 101
e 85 103
e 85 105
e 85 109
e 85 110
e 85 111
e 85 114
e 86 90
e 86 94
e 86 95
e 86 100
e 86 102
e 86 115
e 86 117
e 86 118
e 86 119
e 87 88
e 87 91
e 87 92
e 87 95
e 87 99
e 87 109
e 87 110
e 87 111
e 87 114
e 87 116
e 88 89
e 88 91
e 88 92
e 88 99
e 88 109
e 88 110
e 88 111
e 88 114
e 88 116
e 88 120
e 89 91
e 89 108
e 89 113
e 89 116
e 90 94
e 90 95
e 90 96
e 90 100
e 90 102
e 90 115
e 90 117
e 90 119
e 91 92
e 91 99
e 91 109
e 91 111
e 91 113
e 91 116
e 91 120
e 92 95
e 92 99
e 92 100
e 92 109
e 92 111
e 92 114
e 93 95
e 93 96
e 93 97
e 93 100
e 93 105
e 93 107
e 94 102
e 94 112
e 94 115
e 94 117
e 94 118
e 94 119
e 95 100
e 95 111
e 95 114
e 96 100
e 96 102
e 96 107
e 96 117
e 97 101
e 97 105
e 98 101
e 98 103
e 98 106
e 98 110
e 99 109
e 99 110
e 99 111
e 99 114
e 99 116
e 99 120
e 100 102
e 100 105
e 100 107
e 100 114
e 100 117
e 101 103
e 101 105
e 101 106
e 101 109
e 101 110
e 102 107
e 102 115
e 102 117
e 102 119
e 103 106
e 103 109
e 103 110
e 104 112
e 104 118
e 106 109
e 106 110
e 107 117
e 108 113
e 109 110
e 109 111
e 109 114
e 110 111
e 111 114
e 112 115
e 112 118
e 113 116
e 115 117
e 115 118
e 115 119
e 116 120
e 117 119
e 118 119
